nApps = 204
nRes = 9
nActs = 442
nNetworks = 6

assignmentToResources = [1,1,3,3,1,2,1,3,2,2,2,1,1,2,1,2,3,1,1,2,2,1,3,1,3,2,1,1,1,1,1,1,1,1,1,3,2,3,1,1,2,3,3,1,3,1,3,2,3,3,1,3,3,2,3,3,3,2,3,1,2,2,2,3,3,2,3,3,2,2,3,3,2,3,2,3,3,1,1,3,2,3,3,1,2,3,2,1,2,1,1,1,2,3,3,2,1,2,3,2,4,4,4,4,6,6,6,4,4,4,5,5,4,4,4,6,6,5,5,5,5,5,4,4,4,4,4,5,5,4,5,5,6,6,6,6,4,4,5,5,5,5,4,6,6,6,6,5,5,5,5,5,4,4,4,4,4,4,4,4,4,4,4,4,4,4,4,4,4,4,4,6,5,5,6,6,6,4,4,4,5,5,5,6,4,6,6,6,6,6,6,6,6,6,5,5,5,5,5,5,5,5,5,6,6,6,6,6,6,6,5,5,5,6,6,6,5,6,5,6,4,4,4,5,6,6,4,4,5,5,5,5,4,5,5,4,6,6,6,5,5,7,4,9,5,7,6,8,4,9,4,8,5,9,4,9,6,8,6,8,4,9,5,9,4,8,5,9,5,9,4,8,6,7,4,8,4,9,5,9,5,7,5,7,6,8,6,7,4,9,6,7,6,7,5,9,4,8,5,7,5,9,9,9,8,9,8,7,7,9,9,9,7,9,9,9,8,8,8,9,9,9,7,9,9,8,8,8,9,9,9,8,9,7,8,7,7,8,8,8,9,7,9,7,9,8,7,7,8,9,9,7,7,9,9,8,9,9,8,9,9,8,8,9,9,8,9,8,9,8,8,9,9,7,7,7,8,8,7,9,9,9,9,9,7,8,9,7,7,8,7,7,7,7,7,8,9,7,9,9,7,9,9,9,9,8,8,8,7,8,8,8,9,7,7,8,8,8,7,8,9,8,9,9,9,7,8,7,9,8,7,9,7,7,8,7,7,9,7,8,8,9];

processingTimes = [88,112,88,152,56,112,168,136,168,56,144,120,112,136,56,104,112,128,88,128,72,112,88,56,128,136,136,128,160,112,144,128,112,96,136,120,104,88,152,144,104,136,128,72,48,80,128,48,112,104,80,40,128,120,152,88,160,80,72,144,160,64,96,56,136,128,104,136,120,104,144,72,120,168,88,112,160,112,136,160,136,128,104,104,80,136,160,128,104,64,120,64,104,128,64,96,168,56,112,152,3,3,4,4,3,3,1000,3,1000,3,1000,4,4,4,4,2000,4,1000,3,3,3,4,3,3,4,1000,1000,3,5,1000,13,8,3,3,3,4,2000,3,3,3,3,3,1000,2500,4,4,4,3,3,4,4,3,3,3,3,3,4,3,3,2500,3,4,4,4,4,23,13,2000,13,3,3,3,1000,3,3,3,4,4,4,4,3,1000,5,3,1000,3,13,4,3,3,3,4,4,4,3,4,3,3,3,3,4,1000,3,4,5,3,3,3,16,4,3,1000,4,4,2000,4,3,4,200,2500,1000,3,1000,5,2000,3,3,11,3,4,1000,1000,8,3,1000,3,1000,3,2500,4,1000,1000,1000,1000,3,3,4,4,3,3,4,4,3,3,3,3,3,3,3,3,6,6,3,3,13,13,3,3,3,3,3,3,3,3,3,3,4,4,3,3,5,5,5,5,5,5,13,13,13,13,8,8,4,4,5,5,4,4,4,4,4,4,3,3,4,4,3,3,1000,3,1000,3,1000,4,4,4,4,2000,4,1000,3,3,3,4,3,3,4,1000,1000,3,5,1000,13,8,3,3,3,4,2000,3,3,3,3,3,1000,2500,4,4,4,3,3,4,4,3,3,3,3,3,4,3,3,2500,3,4,4,4,4,23,13,2000,13,3,3,3,1000,3,3,3,4,4,4,4,3,1000,5,3,1000,3,13,4,3,3,3,4,4,4,3,4,3,3,3,3,4,1000,3,4,5,3,3,3,16,4,3,1000,4,4,2000,4,3,4,200,2500,1000,3,1000,5,2000,3,3,11,3,4,1000,1000,8,3,1000,3,1000,3,2500,4];

periods = [100000,10000,100000,10000,20000,10000,10000,20000,20000,20000,20000,10000,10000,20000,10000,10000,20000,100000,20000,10000,20000,100000,100000,20000,5000,2000,100000,10000,50000,100000,20000,50000,20000,20000,10000,20000,10000,100000,10000,10000,10000,10000,20000,10000,10000,1000,10000,20000,20000,10000,20000,20000,20000,10000,10000,100000,10000,100000,10000,20000,10000,20000,10000,100000,100000,20000,20000,100000,100000,100000,20000,20000,100000,10000,2000,100000,2000,20000,10000,20000,10000,20000,10000,10000,100000,100000,20000,100000,20000,100000,10000,20000,10000,10000,100000,10000,20000,20000,20000,20000,100000,100000,100000,100000,100000,100000,10000,20000,20000,20000,10000,10000,10000,10000,10000,20000,20000,20000,20000,20000,20000,20000,10000,10000,10000,10000,10000,20000,20000,10000,10000,10000,20000,20000,20000,20000,20000,20000,10000,10000,20000,20000,100000,100000,100000,5000,5000,2000,2000,2000,2000,2000,100000,100000,100000,10000,50000,100000,100000,100000,100000,100000,20000,20000,20000,20000,20000,20000,20000,10000,10000,20000,10000,10000,100000,100000,100000,10000,10000,10000,10000,10000,10000,10000,10000,10000,20000,20000,20000,20000,10000,10000,10000,100000,100000,100000,10000,10000,10000,20000,20000,20000,20000,100000,100000,100000,100000,100000,20000,100000,100000,100000,100000,20000,20000,20000,100000,10000,2000,100000,20000,20000,10000,10000,20000,20000,10000,10000,100000,100000,100000,20000,100000,20000,20000,20000,10000,10000,100000,10000,100000,100000,100000,100000,20000,20000,20000,20000,20000,20000,20000,20000,20000,20000,20000,20000,20000,20000,20000,20000,20000,20000,20000,20000,10000,10000,10000,10000,10000,10000,10000,10000,10000,10000,10000,10000,10000,10000,10000,10000,10000,10000,10000,10000,10000,10000,20000,20000,20000,20000,20000,20000,20000,20000,20000,20000,20000,20000,10000,10000,10000,10000,100000,100000,100000,100000,100000,100000,10000,20000,20000,20000,10000,10000,10000,10000,10000,20000,20000,20000,20000,20000,20000,20000,10000,10000,10000,10000,10000,20000,20000,10000,10000,10000,20000,20000,20000,20000,20000,20000,10000,10000,20000,20000,100000,100000,100000,5000,5000,2000,2000,2000,2000,2000,100000,100000,100000,10000,50000,100000,100000,100000,100000,100000,20000,20000,20000,20000,20000,20000,20000,10000,10000,20000,10000,10000,100000,100000,100000,10000,10000,10000,10000,10000,10000,10000,10000,10000,20000,20000,20000,20000,10000,10000,10000,100000,100000,100000,10000,10000,10000,20000,20000,20000,20000,100000,100000,100000,100000,100000,20000,100000,100000,100000,100000,20000,20000,20000,100000,10000,2000,100000,20000,20000,10000,10000,20000,20000,10000,10000,100000,100000,100000,20000,100000,20000,20000,20000,10000,10000,100000,10000];

assignmentToClusters = [1,2,3,4,5,6,7,8,9,10,9,11,12,13,14,14,15,16,17,18,19,20,21,22,23,24,25,11,26,27,28,29,30,17,31,32,11,33,18,14,14,34,9,12,35,36,11,9,17,37,5,38,9,34,39,40,41,42,12,9,11,43,44,45,46,47,48,49,50,1,17,51,52,12,53,54,55,9,56,9,12,5,14,57,58,1,59,60,5,61,62,9,12,11,1,63,17,64,17,17,65,66,67,68,69,70,71,72,73,74,75,76,77,78,79,80,81,82,83,84,85,86,87,88,89,90,91,92,93,94,95,96,97,98,99,100,101,102,103,104,105,106,107,108,109,110,111,112,113,114,115,116,117,118,119,120,121,122,123,124,125,126,127,128,129,130,131,132,133,134,135,136,137,138,139,140,141,142,143,144,145,146,147,148,149,150,151,152,153,154,155,156,157,158,159,160,161,162,163,164,165,166,167,168,169,170,171,172,173,174,175,176,177,178,179,180,181,182,183,184,185,186,187,188,189,190,191,192,193,194,195,196,197,198,199,200,201,202,203,204,1,1,1,1,5,5,5,5,5,5,9,9,9,9,9,9,9,9,9,9,9,9,9,9,11,11,11,11,11,11,11,11,11,11,12,12,12,12,12,12,12,12,14,14,14,14,17,17,17,17,17,17,17,17,17,17,17,17,18,18,34,34,65,66,67,68,69,70,71,72,73,74,75,76,77,78,79,80,81,82,83,84,85,86,87,88,89,90,91,92,93,94,95,96,97,98,99,100,101,102,103,104,105,106,107,108,109,110,111,112,113,114,115,116,117,118,119,120,121,122,123,124,125,126,127,128,129,130,131,132,133,134,135,136,137,138,139,140,141,142,143,144,145,146,147,148,149,150,151,152,153,154,155,156,157,158,159,160,161,162,163,164,165,166,167,168,169,170,171,172,173,174,175,176,177,178,179,180,181,182,183,184,185,186,187,188,189,190,191,192,193,194,195,196,197,198,199,200,201,202,203,204];

precedenceAdjList = [[241],[],[],[],[245],[],[],[],[251],[],[47],[],[],[],[39],[],[],[],[287],[],[],[],[],[],[],[],[],[273],[],[],[],[],[],[291,293],[],[],[265],[],[299],[283],[15,285],[301],[253,255],[281],[],[],[267,269],[257,259],[289],[],[],[],[261],[],[],[],[],[],[277,279],[],[271],[],[],[],[],[],[],[],[],[],[],[],[],[58],[],[],[],[],[],[263],[],[249],[],[],[],[94],[],[],[247],[],[],[],[275],[],[243],[],[],[],[295],[297],[],[],[],[],[],[],[],[],[],[],[],[],[],[],[],[],[],[],[],[],[],[],[],[],[],[],[],[],[],[],[],[],[],[],[],[],[],[],[],[],[],[],[],[],[],[],[],[],[],[],[],[],[],[],[],[],[],[],[],[],[],[],[],[],[],[],[],[],[],[],[],[],[],[],[],[],[],[],[],[],[],[],[],[],[],[],[],[],[],[],[],[],[],[],[],[],[],[],[],[],[],[],[],[],[],[],[],[],[],[],[],[],[],[],[],[],[],[],[],[],[],[],[],[],[],[],[],[],[],[],[],[],[],[],[],[],[],[],[],[],[69],[240],[0],[242],[88],[244],[81],[246],[50],[248],[77],[250],[8],[252],[91],[254],[42],[256],[52],[258],[59],[260],[47],[262],[11],[264],[36],[266],[60],[268],[27],[270],[93],[272],[12],[274],[43],[276],[92],[278],[80],[280],[40],[282],[82],[284],[48],[286],[33],[288],[98],[290],[70],[292],[99],[294],[96],[296],[19],[298],[53],[300],[100],[101],[102],[103],[104],[105],[106],[107],[108],[109],[110],[111],[112],[113],[114],[115],[116],[117],[118],[119],[120],[121],[122],[123],[124],[125],[126],[127],[128],[129],[130],[131],[132],[133],[134],[135],[136],[137],[138],[139],[140],[141],[142],[143],[144],[145],[146],[147],[148],[149],[150],[151],[152],[153],[154],[155],[156],[157],[158],[159],[160],[161],[162],[163],[164],[165],[166],[167],[168],[169],[170],[171],[172],[173],[174],[175],[176],[177],[178],[179],[180],[181],[182],[183],[184],[185],[186],[187],[188],[189],[190],[191],[192],[193],[194],[195],[196],[197],[198],[199],[200],[201],[202],[203],[204],[205],[206],[207],[208],[209],[210],[211],[212],[213],[214],[215],[216],[217],[218],[219],[220],[221],[222],[223],[224],[225],[226],[227],[228],[229],[230],[231],[232],[233],[234],[235],[236],[237],[238],[239]];